p cnf 132 401
c t mc
-4 -2 0
-4 3 0
2 -3 4 0
-1 -4 -5 0
1 4 -5 0
-1 4 5 0
1 -4 5 0
-7 5 0
-7 -6 0
-5 6 7 0
-10 -8 0
-10 -9 0
8 9 10 0
7 10 -11 0
-7 -10 -11 0
7 -10 11 0
-7 10 11 0
13 9 0
13 -12 0
-9 12 -13 0
-16 14 0
-16 -15 0
-14 15 16 0
-18 9 0
-18 -17 0
-9 17 18 0
-20 18 0
-20 -19 0
-18 19 20 0
-22 -20 0
-22 -21 0
20 21 22 0
-16 22 -23 0
16 -22 -23 0
-16 -22 23 0
16 22 23 0
-24 13 0
-24 -23 0
-13 23 24 0
25 -24 0
25 -12 0
24 12 -25 0
11 25 -26 0
-11 -25 -26 0
11 -25 26 0
-11 25 26 0
28 27 0
28 1 0
-27 -1 -28 0
-4 -27 -29 0
4 27 -29 0
-4 27 29 0
4 -27 29 0
30 31 -32 0
-30 -31 -32 0
30 -31 32 0
-30 31 32 0
-33 -14 0
-33 32 0
14 -32 33 0
-16 -18 -34 0
16 18 -34 0
-16 18 34 0
16 -18 34 0
35 -15 0
35 34 0
15 -34 -35 0
-36 33 0
-36 -35 0
-33 35 36 0
-37 -29 0
-37 -36 0
29 36 37 0
-22 -38 -39 0
22 38 -39 0
-22 38 39 0
22 -38 39 0
-40 -37 0
-40 39 0
37 -39 40 0
-41 -28 0
-41 40 0
28 -40 41 0
-6 -42 -43 0
6 42 -43 0
-6 42 43 0
6 -42 43 0
-44 -43 0
-44 5 0
43 -5 44 0
42 44 -45 0
-42 -44 -45 0
42 -44 45 0
-42 44 45 0
-17 46 -47 0
17 -46 -47 0
-17 -46 47 0
17 46 47 0
-49 -48 0
-49 9 0
48 -9 49 0
-47 49 -50 0
47 -49 -50 0
-47 -49 50 0
47 49 50 0
-51 -29 0
-51 -12 0
29 12 51 0
52 -20 -53 0
-52 20 -53 0
52 20 53 0
-52 -20 53 0
-54 51 0
-54 53 0
-51 -53 54 0
-27 -55 -56 0
27 55 -56 0
-27 55 56 0
27 -55 56 0
-57 56 0
-57 -2 0
-56 2 57 0
58 54 0
58 -57 0
-54 57 -58 0
50 -58 -59 0
-50 58 -59 0
50 58 59 0
-50 -58 59 0
-60 45 0
-60 59 0
-45 -59 60 0
41 60 -61 0
-41 -60 -61 0
41 -60 61 0
-41 60 61 0
-62 38 0
-62 31 0
-38 -31 62 0
63 -31 0
63 -62 0
31 62 -63 0
-64 53 0
-64 -42 0
-53 42 64 0
-65 37 0
-65 20 0
-37 -20 65 0
-65 33 -66 0
65 -33 -66 0
-65 -33 66 0
65 33 66 0
64 66 -67 0
-64 -66 -67 0
64 -66 67 0
-64 66 67 0
-68 -63 0
-68 67 0
63 -67 68 0
69 14 -70 0
-69 -14 -70 0
69 -14 70 0
-69 14 70 0
71 -13 0
71 -70 0
13 70 -71 0
68 71 -72 0
-68 -71 -72 0
68 -71 72 0
-68 71 72 0
73 61 0
73 -72 0
-61 72 -73 0
74 -23 0
74 -70 0
23 70 -74 0
75 -74 0
75 -51 0
74 51 -75 0
-12 33 -76 0
12 -33 -76 0
-12 -33 76 0
12 33 76 0
-34 76 -77 0
34 -76 -77 0
-34 -76 77 0
34 76 77 0
15 -76 -78 0
-15 76 -78 0
15 76 78 0
-15 -76 78 0
79 -78 0
79 78 0
77 -79 -80 0
-77 79 -80 0
77 79 80 0
-77 -79 80 0
75 80 -81 0
-75 -80 -81 0
75 -80 81 0
-75 80 81 0
-82 38 0
-82 -3 0
-38 3 82 0
2 -1 -83 0
-2 1 -83 0
2 1 83 0
-2 -1 83 0
84 9 0
84 83 0
-9 -83 -84 0
85 -82 0
85 -84 0
82 84 -85 0
-35 21 -86 0
35 -21 -86 0
-35 -21 86 0
35 21 86 0
-86 83 -87 0
86 -83 -87 0
-86 -83 87 0
86 83 87 0
-6 -82 -88 0
6 82 -88 0
-6 82 88 0
6 -82 88 0
89 -88 0
89 87 0
88 -87 -89 0
90 87 0
90 89 0
-87 -89 -90 0
-91 53 0
-91 3 0
-53 -3 91 0
92 -9 0
92 91 0
9 -91 -92 0
79 -91 -93 0
-79 91 -93 0
79 91 93 0
-79 -91 93 0
94 92 0
94 -93 0
-92 93 -94 0
-90 94 -95 0
90 -94 -95 0
-90 -94 95 0
90 94 95 0
96 -85 0
96 -95 0
85 95 -96 0
97 -81 0
97 96 0
81 -96 -97 0
98 30 0
98 -38 0
-30 38 -98 0
97 -98 -99 0
-97 98 -99 0
97 98 99 0
-97 -98 99 0
-100 73 0
-100 99 0
-73 -99 100 0
-101 -16 0
-101 55 0
16 -55 101 0
102 12 0
102 -29 0
-12 29 -102 0
-101 102 -103 0
101 -102 -103 0
-101 -102 103 0
101 102 103 0
104 103 0
104 70 0
-103 -70 -104 0
106 -105 0
106 -16 0
105 16 -106 0
107 -42 0
107 -106 0
42 106 -107 0
-108 104 0
-108 -107 0
-104 107 108 0
109 9 -110 0
-109 -9 -110 0
109 -9 110 0
-109 9 110 0
111 110 0
111 43 0
-110 -43 -111 0
-112 -13 0
-112 30 0
13 -30 112 0
-110 12 -113 0
110 -12 -113 0
-110 -12 113 0
110 12 113 0
65 -113 -114 0
-65 113 -114 0
65 113 114 0
-65 -113 114 0
-115 112 0
-115 114 0
-112 -114 115 0
-116 -111 0
-116 115 0
111 -115 116 0
-108 116 -117 0
108 -116 -117 0
-108 -116 117 0
108 116 117 0
-118 -100 0
-118 -117 0
100 117 118 0
119 -26 0
119 -118 0
26 118 -119 0
-121 -1 0
-121 -120 0
1 120 121 0
122 -22 0
122 2 0
22 -2 -122 0
-5 -30 -123 0
5 30 -123 0
-5 30 123 0
5 -30 123 0
-124 109 0
-124 -24 0
-109 24 124 0
125 -123 0
125 -124 0
123 124 -125 0
35 -3 -126 0
-35 3 -126 0
35 3 126 0
-35 -3 126 0
127 -12 0
127 82 0
12 -82 -127 0
128 126 0
128 -127 0
-126 127 -128 0
-129 125 0
-129 -128 0
-125 128 129 0
122 129 -130 0
-122 -129 -130 0
122 -129 130 0
-122 129 130 0
-131 121 0
-131 130 0
-121 -130 131 0
132 119 0
132 -131 0
-119 131 -132 0
-54 -33 61 -21 42 -23 76 -104 109 -58 0
-45 -84 -65 -75 0
118 28 14 -1 -98 -36 105 0
-126 13 -26 59 42 0
129 -29 -65 121 -13 -49 -47 -72 0
-94 125 -93 0
29 -51 -131 0
-122 -59 16 -51 4 -29 0
-20 -87 110 -85 -94 0
-69 -39 -101 4 26 -113 0
-41 35 9 0
-73 61 -27 69 0
-86 -50 -78 -9 0
32 71 34 42 -14 30 5 -43 -28 -76 0
72 32 -11 17 56 60 -22 -28 -55 51 0
-127 81 -85 72 -91 25 55 83 79 0
-75 123 39 92 113 -52 -13 7 62 0
73 71 106 109 -90 88 60 -48 2 0
3 17 -88 -39 -53 40 -128 47 -58 0
115 11 -95 -57 16 39 49 0
85 -40 -90 -96 73 -104 -22 -111 -56 0
111 -36 83 42 25 0
36 -83 124 128 0
2 -105 129 113 -31 0
-26 100 -12 -11 49 -27 91 76 130 0
100 -86 31 61 14 131 4 -54 -123 -78 0
57 75 -38 106 131 -45 120 0
-43 101 -38 -63 -128 -83 0
61 43 -87 98 -14 -23 -111 0
-32 114 -96 9 36 97 -5 -50 -84 17 0
50 10 -45 -107 71 -4 -86 0
92 120 7 78 45 117 -67 -70 1 30 0
127 -111 17 80 9 -93 38 -113 56 -25 0
-5 56 91 9 -132 0
-52 -130 -109 117 29 108 -99 -33 0
-113 3 83 -44 -47 -2 122 0
-112 72 51 -73 48 -64 -124 0
-127 51 -18 -22 111 -90 54 75 0
-65 4 8 -104 98 -11 -112 97 -127 0
57 92 -77 -106 -75 112 0
132 0
